$ LBS instance with n = 51, seed = 2254257
letting cards be [2,14,11,33,37,43,41,30,9,35,44,5,3,22,34,24,47,13,31,1,28,36,40,10,25,27,21,46,29,26,39,4,16,23,50,18,7,19,0,38,12,17,20,8,45,15,6,49,32,42,48]
